50
90.0
0 49 22.83 11.82
1 48 15.2 13.2
2 47 14.33 13.57
3 46 21.66 10.76
4 45 23.06 8.11
5 44 16.04 7.73
6 43 14.45 6.23
7 42 17.88 4.43
8 41 89.02 0.33
9 40 90.79 0.0
10 39 58.67 0.0
11 38 54.42 0.0
12 37 48.62 0.0
13 36 48.69 0.0
14 35 49.54 0.0
15 34 42.62 0.0
16 33 53.42 0.0
17 32 49.91 0.0
18 31 46.77 0.0
19 30 51.63 0.0
20 29 59.93 0.0
21 28 54.07 0.0
22 27 57.48 0.0
23 26 60.38 0.0
24 25 49.48 0.0
25 24 45.25 0.0
26 23 49.17 0.0
27 22 48.09 0.0
28 21 45.19 0.0
29 20 56.55 0.0
30 19 42.16 0.0
31 18 45.61 0.0
32 17 48.06 0.0
33 16 40.12 0.0
34 15 54.73 0.0
35 14 73.36 0.0
36 13 47.46 0.0
37 12 43.83 0.0
38 11 56.36 0.0
39 10 43.7 0.0
40 9 52.78 0.0
41 8 44.12 0.0
42 7 41.71 0.0
43 6 63.67 0.0
44 5 45.0 0.0
45 4 48.75 0.0
46 3 69.33 0.0
47 2 13.5 0.0
48 1 12.0 0.0
